62 67 8 87 56 74 98 32 97 61 93 94 
82 89 65 69 27 23 64 3 53 14 2 85 16 7 52 51 55 28 21 59 100 86 96 77 
48 43 92 57 33 26 19 11 22 40 84 10 66 34 90 13 72 4 75 70 60 50 
15 38 6 12 35 46 58 
29 45 
39 88 1 79 83 47 18 
31 30 41 24 17 37 63 
36 42 20 44 76 99 9 78 49 95 91 54 73 68 81 71 25 80 5 

